p cnf 10 20
3 10 8 0
-3 2 1 0
-2 -9 -3 0
-1 -10 -6 0
-7 2 3 0
9 3 -8 0
-4 10 -7 0
6 -5 -7 0
5 -2 -6 0
10 -1 -8 0
3 -5 10 0
9 6 2 0
5 1 -6 0
7 -10 -9 0
-5 -6 -2 0
10 9 -5 0
-5 3 4 0
6 -9 7 0
7 -8 -9 0
10 -9 3 0
